benchmarks/abs_value/easy.solution
Problem: abs_value
Difficulty: easy
Type: DEBUG SOLUTION (Expected)
Status: ERROR: typename(ErrorException)
Solution: ifelse(x >= 0, x, -(x))

Verification Result:
    ⚠ ERROR: typename(ErrorException)
